proyfinal/src/viki/013/andrea/andrea-localstore/experimentInOfficeAgust.take6/worker_6/f604d728-018d-480a-bdd1-ccd19667fdc2.als.cnf.out
Reading from standard input... Use '--help' for help.
============================[ Problem Statistics ]=============================
|                                                                             |
|  Number of variables:         87638                                         |
|  Number of clauses:          161767                                         |
|  Parse time:                   0.03 s                                       |
|                                                                             |
============================[ Search Statistics ]==============================
| Conflicts |          ORIGINAL         |          LEARNT          | Progress |
|           |    Vars  Clauses Literals |    Limit  Clauses Lit/Cl |          |
===============================================================================
|       100 |   63564   109522   273923 |    40158      100     12 | 27.470 % |
|       250 |   63560   109506   273879 |    44173      225     65 | 27.475 % |
|       475 |   63559   109506   273879 |    48591      449     50 | 27.476 % |
|       812 |   63523   109314   273447 |    53450      687     63 | 27.517 % |
|      1318 |   63523   109314   273447 |    58795     1193    121 | 27.517 % |
|      2077 |   63523   109314   273447 |    64674     1952    119 | 27.517 % |
|      3216 |   63523   109314   273447 |    71142     3091    108 | 27.517 % |
===============================================================================
restarts              : 17
conflicts             : 3339           (6437 /sec)
decisions             : 13014          (0.00 % random) (25090 /sec)
propagations          : 4813800        (9280527 /sec)
conflict literals     : 351284         (52.47 % deleted)
Memory used           : 25.04 MB
CPU time              : 0.518699 s

UNSATISFIABLE
